\ Model Routes
\ LP format - for model browsing. Use MPS format to capture full model detail.
Maximize
  1074.128206194839 R{0,0} + 2132.579024458567 R{0,1}
   + 2132.579024458567 R{0,2} - 249.2301939667805 R{0,3}
   - 17.2186063228686 R{0,4} + 633.9864386092545 R{0,5}
   + 633.9864386092545 R{0,6} + 475.3739696087397 R{0,7}
   + 2368.692663405788 R{0,8} + 446.8679010966505 R{0,9}
   + 3058.789506588379 R{0,10} + 1196.798266276765 R{0,11}
   + 766.9042984796309 R{0,12} + 1859.798556101076 R{0,13}
   + 672.5355516507965 R{0,14} + 2067.032813791525 R{0,15}
   + 1694.918848592635 R{0,16} + 1614.593355825503 R{0,17}
   + 2701.496540342749 R{0,18} + 1540.774062687823 R{0,19}
   + 527.7463391603528 R{0,20} + 1543.224729656641 R{0,21}
   + 1826.920442750267 R{0,22} + 2039.774208375105 R{0,23}
   + 785.0547447900468 R{0,24} + 1326.022278294636 R{0,25}
   + 2698.536843271635 R{0,26} + 1839.338839657476 R{0,27}
   - 256.140831891889 R{1,0} + 49.34684324404907 R{1,1}
   + 676.8345199092203 R{1,2} + 45.86721681582435 R{1,3}
   + 691.7258626762888 R{1,4} + 57.58777505386968 R{1,5}
   + 818.2748011405019 R{1,6} + 466.1512155265586 R{1,7}
   + 882.9017319719846 R{1,8} + 902.7296699237577 R{1,9}
   + 638.8948170629119 R{1,10} + 359.3026751820158 R{1,11}
   + 466.1512155265586 R{1,12} + 61.00404633198264 R{1,13}
   + 466.1512155265586 R{1,14} + 171.7075476982251 R{1,15}
   + 690.169375306981 R{1,16} + 466.1512155265586 R{1,17}
   + 603.6215474625204 R{1,18} + 439.5571609249839 R{1,19}
   - 278.4443928850388 R{2,0} - 59.13410337035452 R{2,1}
   + 602.7748664658451 R{2,2} + 1100.505917706273 R{2,3}
   + 1127.126554447374 R{2,4} + 484.606778020975 R{2,5}
   + 509.8648253792986 R{2,6} - 152.0441444569009 R{2,7}
   + 850.7767431229745 R{2,8} + 1127.126554447374 R{2,9}
   + 340.5957174541109 R{2,10} + 746.1856663513532 R{2,11}
   + 76.02875548709102 R{2,12} + 854.2487578921023 R{2,13}
   + 576.1354746040417 R{2,14} + 786.0200774820436 R{2,15}
   + 395.796393489625 R{2,16} + 407.2501489338483 R{2,17}
   + 1105.009227331023 R{2,18} - 260.2482995389823 R{3,0}
   + 522.4398281754088 R{3,1} + 1230.485940651614 R{3,2}
   + 389.4886084577174 R{3,3} + 54.46167651859446 R{3,4}
   + 1212.439507277819 R{3,5} + 464.5637923427635 R{3,6}
   + 600.8484341192557 R{3,7} + 754.8151001202068 R{3,8}
   + 897.6520850191869 R{3,9} + 642.6015020204607 R{3,10}
   + 1355.8408267261 R{3,11} + 1130.805098514913 R{3,12}
   + 835.4960889047288 R{3,13} + 393.8911027252198 R{3,14}
   + 1238.591215110536 R{3,15} + 149.9290977253781 R{3,16}
   + 375.7082077793061 R{3,17} - 44.00514159985249 R{3,18}
   - 46.06672751615216 R{3,19} + 887.4579301584213 R{3,20}
   + 279.7306280986676 R{3,21} + 608.0332654822696 R{3,22}
   + 1078.512723204269 R{3,23} + 1366.057138413817 R{3,24}
   - 242.5208875955131 R{4,0} + 1066.379443184683 R{4,1}
   + 1576.196574514046 R{4,2} + 940.9858490724757 R{4,3}
   + 926.6049210864558 R{4,4} + 1024.722006942731 R{4,5}
   + 1614.759663885629 R{4,6} + 606.4157079666509 R{4,7}
   + 767.7227845296766 R{4,8} + 1243.182504172769 R{4,9}
   + 897.3931736728678 R{4,10} + 1274.36549094027 R{4,11}
   + 1916.956318985923 R{4,12} + 660.8942950712199 R{4,13}
   + 850.7255201417406 R{4,14} + 1365.326677281656 R{4,15}
   + 1948.139305753423 R{4,16} + 1453.489805779114 R{4,17}
   + 1389.360836712951 R{4,18} + 1793.399400739602 R{4,19}
   + 1730.989503228413 R{4,20} + 987.5335912627452 R{4,21}
   + 972.4173483559525 R{4,22} + 1944.37236651026 R{4,23}
   + 2240.806634557776 R{4,24} + 1978.027415688371 R{4,25}
   + 1425.901966884533 R{4,26} - 231.9775664337766 R{5,0}
   + 326.98460213128 R{5,1} + 1029.155475450034 R{5,2}
   + 1029.155475450034 R{5,3} + 159.2017178284015 R{5,4}
   + 545.8554666111257 R{5,5} + 524.2291148983466 R{5,6}
   + 743.66593921768 R{5,7} + 380.0385593447276 R{5,8}
   + 787.938953414214 R{5,9} + 425.5521920683999 R{5,10}
   + 935.0171012125395 R{5,11} + 787.938953414214 R{5,12}
   + 623.5144966951177 R{5,13} + 1235.61619519633 R{5,14}
   + 709.7960015050667 R{5,15} + 1145.01972176302 R{5,16}
   + 709.7960015050667 R{5,17} + 1144.816462015974 R{5,18}
   + 565.1870979393736 R{5,19} + 1079.283177220524 R{5,20}
   + 686.350743585393 R{5,21} + 1688.493031935044 R{5,22}
   + 808.4224538726717 R{5,23} + 2022.074663417434 R{5,24}
   + 587.3063902643248 R{5,25} + 17.2848275706526 R{5,26}
   + 788.3510319162502 R{5,27} + 648.618616610485 R{5,28}
   + 237.0718653606886 R{5,29} + 1758.073217339736 R{5,30}
   + 390.2299822372138 R{5,31} + 1694.274465237224 R{5,32}
   - 231.1436095783099 R{6,0} + 191.5404493938873 R{6,1}
   + 925.6177126171319 R{6,2} + 1346.77274349011 R{6,3}
   + 242.7260269701918 R{6,4} + 1780.719169024151 R{6,5}
   + 1136.127968928346 R{6,6} + 771.5466022963174 R{6,7}
   + 475.0317073232137 R{6,8} + 1554.116528234138 R{6,9}
   + 124.4798519252709 R{6,10} + 496.781624934308 R{6,11}
   + 910.7536424281109 R{6,12} + 587.4701972388252 R{6,13}
   + 315.9285697852714 R{6,14} + 587.4701972388252 R{6,15}
   + 285.2138889977641 R{6,16} + 707.0136437647251 R{6,17}
   + 558.578970302219 R{6,18} + 1642.478198242717 R{6,19}
   + 562.8000872764069 R{6,20} + 1393.77165183834 R{6,21}
   + 1380.529408918448 R{6,22} + 743.5379510251164 R{6,23}
   + 340.974995514644 R{6,24} + 933.0328093965504 R{6,25}
   + 864.793981874913 R{6,26} + 931.883094583256 R{6,27}
   - 154.898094267186 R{6,28} + 1005.64183687232 R{6,29}
   + 249.3126720402692 R{6,30} + 1351.855413112791 R{6,31}
   + 1902.379160099706 R{6,32} + 844.3968000778113 R{6,33}
   + 2816.378358225197 R{6,34}
Subject To
 R00: R{0,0} <= 1
 R01: R{0,1} <= 1
 R02: R{0,2} <= 1
 R03: R{0,3} <= 1
 R04: R{0,4} <= 1
 R05: R{0,5} <= 1
 R06: R{0,6} <= 1
 R07: R{0,7} <= 1
 R08: R{0,8} <= 1
 R09: R{0,9} <= 1
 R010: R{0,10} <= 1
 R011: R{0,11} <= 1
 R012: R{0,12} <= 1
 R013: R{0,13} <= 1
 R014: R{0,14} <= 1
 R015: R{0,15} <= 1
 R016: R{0,16} <= 1
 R017: R{0,17} <= 1
 R018: R{0,18} <= 1
 R019: R{0,19} <= 1
 R020: R{0,20} <= 1
 R021: R{0,21} <= 1
 R022: R{0,22} <= 1
 R023: R{0,23} <= 1
 R024: R{0,24} <= 1
 R025: R{0,25} <= 1
 R026: R{0,26} <= 1
 R027: R{0,27} <= 1
 R028: R{1,0} <= 1
 R029: R{1,1} <= 1
 R030: R{1,2} <= 1
 R031: R{1,3} <= 1
 R032: R{1,4} <= 1
 R033: R{1,5} <= 1
 R034: R{1,6} <= 1
 R035: R{1,7} <= 1
 R036: R{1,8} <= 1
 R037: R{1,9} <= 1
 R038: R{1,10} <= 1
 R039: R{1,11} <= 1
 R040: R{1,12} <= 1
 R041: R{1,13} <= 1
 R042: R{1,14} <= 1
 R043: R{1,15} <= 1
 R044: R{1,16} <= 1
 R045: R{1,17} <= 1
 R046: R{1,18} <= 1
 R047: R{1,19} <= 1
 R048: R{2,0} <= 1
 R049: R{2,1} <= 1
 R050: R{2,2} <= 1
 R051: R{2,3} <= 1
 R052: R{2,4} <= 1
 R053: R{2,5} <= 1
 R054: R{2,6} <= 1
 R055: R{2,7} <= 1
 R056: R{2,8} <= 1
 R057: R{2,9} <= 1
 R058: R{2,10} <= 1
 R059: R{2,11} <= 1
 R060: R{2,12} <= 1
 R061: R{2,13} <= 1
 R062: R{2,14} <= 1
 R063: R{2,15} <= 1
 R064: R{2,16} <= 1
 R065: R{2,17} <= 1
 R066: R{2,18} <= 1
 R067: R{3,0} <= 1
 R068: R{3,1} <= 1
 R069: R{3,2} <= 1
 R070: R{3,3} <= 1
 R071: R{3,4} <= 1
 R072: R{3,5} <= 1
 R073: R{3,6} <= 1
 R074: R{3,7} <= 1
 R075: R{3,8} <= 1
 R076: R{3,9} <= 1
 R077: R{3,10} <= 1
 R078: R{3,11} <= 1
 R079: R{3,12} <= 1
 R080: R{3,13} <= 1
 R081: R{3,14} <= 1
 R082: R{3,15} <= 1
 R083: R{3,16} <= 1
 R084: R{3,17} <= 1
 R085: R{3,18} <= 1
 R086: R{3,19} <= 1
 R087: R{3,20} <= 1
 R088: R{3,21} <= 1
 R089: R{3,22} <= 1
 R090: R{3,23} <= 1
 R091: R{3,24} <= 1
 R092: R{4,0} <= 1
 R093: R{4,1} <= 1
 R094: R{4,2} <= 1
 R095: R{4,3} <= 1
 R096: R{4,4} <= 1
 R097: R{4,5} <= 1
 R098: R{4,6} <= 1
 R099: R{4,7} <= 1
 R0100: R{4,8} <= 1
 R0101: R{4,9} <= 1
 R0102: R{4,10} <= 1
 R0103: R{4,11} <= 1
 R0104: R{4,12} <= 1
 R0105: R{4,13} <= 1
 R0106: R{4,14} <= 1
 R0107: R{4,15} <= 1
 R0108: R{4,16} <= 1
 R0109: R{4,17} <= 1
 R0110: R{4,18} <= 1
 R0111: R{4,19} <= 1
 R0112: R{4,20} <= 1
 R0113: R{4,21} <= 1
 R0114: R{4,22} <= 1
 R0115: R{4,23} <= 1
 R0116: R{4,24} <= 1
 R0117: R{4,25} <= 1
 R0118: R{4,26} <= 1
 R0119: R{5,0} <= 1
 R0120: R{5,1} <= 1
 R0121: R{5,2} <= 1
 R0122: R{5,3} <= 1
 R0123: R{5,4} <= 1
 R0124: R{5,5} <= 1
 R0125: R{5,6} <= 1
 R0126: R{5,7} <= 1
 R0127: R{5,8} <= 1
 R0128: R{5,9} <= 1
 R0129: R{5,10} <= 1
 R0130: R{5,11} <= 1
 R0131: R{5,12} <= 1
 R0132: R{5,13} <= 1
 R0133: R{5,14} <= 1
 R0134: R{5,15} <= 1
 R0135: R{5,16} <= 1
 R0136: R{5,17} <= 1
 R0137: R{5,18} <= 1
 R0138: R{5,19} <= 1
 R0139: R{5,20} <= 1
 R0140: R{5,21} <= 1
 R0141: R{5,22} <= 1
 R0142: R{5,23} <= 1
 R0143: R{5,24} <= 1
 R0144: R{5,25} <= 1
 R0145: R{5,26} <= 1
 R0146: R{5,27} <= 1
 R0147: R{5,28} <= 1
 R0148: R{5,29} <= 1
 R0149: R{5,30} <= 1
 R0150: R{5,31} <= 1
 R0151: R{5,32} <= 1
 R0152: R{6,0} <= 1
 R0153: R{6,1} <= 1
 R0154: R{6,2} <= 1
 R0155: R{6,3} <= 1
 R0156: R{6,4} <= 1
 R0157: R{6,5} <= 1
 R0158: R{6,6} <= 1
 R0159: R{6,7} <= 1
 R0160: R{6,8} <= 1
 R0161: R{6,9} <= 1
 R0162: R{6,10} <= 1
 R0163: R{6,11} <= 1
 R0164: R{6,12} <= 1
 R0165: R{6,13} <= 1
 R0166: R{6,14} <= 1
 R0167: R{6,15} <= 1
 R0168: R{6,16} <= 1
 R0169: R{6,17} <= 1
 R0170: R{6,18} <= 1
 R0171: R{6,19} <= 1
 R0172: R{6,20} <= 1
 R0173: R{6,21} <= 1
 R0174: R{6,22} <= 1
 R0175: R{6,23} <= 1
 R0176: R{6,24} <= 1
 R0177: R{6,25} <= 1
 R0178: R{6,26} <= 1
 R0179: R{6,27} <= 1
 R0180: R{6,28} <= 1
 R0181: R{6,29} <= 1
 R0182: R{6,30} <= 1
 R0183: R{6,31} <= 1
 R0184: R{6,32} <= 1
 R0185: R{6,33} <= 1
 R0186: R{6,34} <= 1
 R1_0: R{0,0} + R{0,1} + R{0,2} + R{0,3} + R{0,4} + R{0,5} + R{0,6}
   + R{0,7} + R{0,8} + R{0,9} + R{0,10} + R{0,11} + R{0,12} + R{0,13}
   + R{0,14} + R{0,15} + R{0,16} + R{0,17} + R{0,18} + R{0,19} + R{0,20}
   + R{0,21} + R{0,22} + R{0,23} + R{0,24} + R{0,25} + R{0,26} + R{0,27}
   <= 1
 R1_1: R{1,0} + R{1,1} + R{1,2} + R{1,3} + R{1,4} + R{1,5} + R{1,6}
   + R{1,7} + R{1,8} + R{1,9} + R{1,10} + R{1,11} + R{1,12} + R{1,13}
   + R{1,14} + R{1,15} + R{1,16} + R{1,17} + R{1,18} + R{1,19} <= 1
 R1_2: R{2,0} + R{2,1} + R{2,2} + R{2,3} + R{2,4} + R{2,5} + R{2,6}
   + R{2,7} + R{2,8} + R{2,9} + R{2,10} + R{2,11} + R{2,12} + R{2,13}
   + R{2,14} + R{2,15} + R{2,16} + R{2,17} + R{2,18} <= 1
 R1_3: R{3,0} + R{3,1} + R{3,2} + R{3,3} + R{3,4} + R{3,5} + R{3,6}
   + R{3,7} + R{3,8} + R{3,9} + R{3,10} + R{3,11} + R{3,12} + R{3,13}
   + R{3,14} + R{3,15} + R{3,16} + R{3,17} + R{3,18} + R{3,19} + R{3,20}
   + R{3,21} + R{3,22} + R{3,23} + R{3,24} <= 1
 R1_4: R{4,0} + R{4,1} + R{4,2} + R{4,3} + R{4,4} + R{4,5} + R{4,6}
   + R{4,7} + R{4,8} + R{4,9} + R{4,10} + R{4,11} + R{4,12} + R{4,13}
   + R{4,14} + R{4,15} + R{4,16} + R{4,17} + R{4,18} + R{4,19} + R{4,20}
   + R{4,21} + R{4,22} + R{4,23} + R{4,24} + R{4,25} + R{4,26} <= 1
 R1_5: R{5,0} + R{5,1} + R{5,2} + R{5,3} + R{5,4} + R{5,5} + R{5,6}
   + R{5,7} + R{5,8} + R{5,9} + R{5,10} + R{5,11} + R{5,12} + R{5,13}
   + R{5,14} + R{5,15} + R{5,16} + R{5,17} + R{5,18} + R{5,19} + R{5,20}
   + R{5,21} + R{5,22} + R{5,23} + R{5,24} + R{5,25} + R{5,26} + R{5,27}
   + R{5,28} + R{5,29} + R{5,30} + R{5,31} + R{5,32} <= 1
 R1_6: R{6,0} + R{6,1} + R{6,2} + R{6,3} + R{6,4} + R{6,5} + R{6,6}
   + R{6,7} + R{6,8} + R{6,9} + R{6,10} + R{6,11} + R{6,12} + R{6,13}
   + R{6,14} + R{6,15} + R{6,16} + R{6,17} + R{6,18} + R{6,19} + R{6,20}
   + R{6,21} + R{6,22} + R{6,23} + R{6,24} + R{6,25} + R{6,26} + R{6,27}
   + R{6,28} + R{6,29} + R{6,30} + R{6,31} + R{6,32} + R{6,33} + R{6,34}
   <= 1
 R2_0: 7 R{0,0} + 7 R{0,1} + 7 R{0,2} + 7 R{0,8} + 7 R{0,10} + 7 R{0,13}
   + 7 R{0,15} + 7 R{0,16} + 7 R{0,17} + 7 R{0,18} + 7 R{0,19} + 7 R{0,21}
   + 7 R{0,22} + 7 R{0,23} + 7 R{0,26} + 7 R{0,27} <= 7
 R2_1: 10 R{1,10} + 10 R{2,8} + 10 R{3,1} + 10 R{3,2} + 10 R{3,3}
   + 10 R{3,5} + 10 R{3,7} + 10 R{3,8} + 10 R{3,9} + 10 R{3,10}
   + 10 R{3,11} + 10 R{3,13} + 9 R{3,24} + 10 R{5,15} + 10 R{5,17}
   + 10 R{6,9} + 10 R{6,22} + 10 R{6,32} <= 10
 R2_2: <= 0
 R2_3: 4 R{1,1} + 4 R{1,2} + 4 R{1,3} + 4 R{1,4} + 4 R{1,5} + 4 R{1,8}
   + 4 R{2,11} + 4 R{2,12} <= 4
 R2_4: <= 0
 R2_5: 5 R{0,4} + 5 R{0,5} + 5 R{0,6} + 3 R{5,2} + 3 R{5,3} <= 5
 R2_6: <= 10
 R2_7: 6 R{1,1} + 6 R{1,3} + 6 R{1,5} <= 6
 R2_8: <= 0
 R2_9: 12 R{4,1} + 12 R{4,2} + 12 R{4,3} + 12 R{4,4} + 12 R{4,5}
   + 12 R{4,6} + 12 R{4,7} + 12 R{4,8} + 12 R{4,9} + 12 R{4,11}
   + 12 R{4,12} + 12 R{4,13} + 12 R{4,15} + 12 R{4,16} + 12 R{4,17}
   + 12 R{4,18} + 12 R{4,20} + 12 R{4,21} + 12 R{4,22} + 12 R{4,23}
   + 12 R{4,24} + 12 R{4,26} <= 12
 R2_10: 8 R{5,23} + 8 R{6,1} + 8 R{6,2} + 8 R{6,4} + 8 R{6,7} + 8 R{6,10}
   + 8 R{6,16} + 8 R{6,18} + 8 R{6,20} + 8 R{6,21} + 8 R{6,23} + 8 R{6,24}
   + 8 R{6,26} + 8 R{6,29} + 8 R{6,31} <= 8
 R2_11: 15 R{0,25} + 15 R{6,27} <= 15
 R2_12: <= 0
 R2_13: <= 0
 R2_14: <= 0
 R2_15: 11 R{0,0} + 11 R{0,1} + 11 R{0,2} + 11 R{0,13} + 11 R{0,21}
   + 11 R{0,22} + 11 R{0,23} + 11 R{0,26} + 11 R{4,1} + 11 R{4,2}
   + 11 R{4,3} + 11 R{4,6} <= 11
 R2_16: 5 R{0,22} + 5 R{0,25} + 5 R{4,21} + 5 R{4,23} + 5 R{6,31} <= 5
 R2_17: 11 R{0,10} + 11 R{0,18} + 11 R{0,21} + 11 R{0,23} + 11 R{0,27}
   + 11 R{4,7} + 11 R{4,8} + 11 R{6,34} <= 11
 R2_18: 5 R{0,27} + 5 R{2,13} + 5 R{4,21} + 5 R{5,30} <= 5
 R2_19: 11 R{0,8} + 11 R{0,10} + 10 R{0,12} + 11 R{0,16} + 11 R{0,18}
   + 11 R{0,22} + 11 R{1,6} + 11 R{1,19} + 11 R{2,17} + 11 R{3,11}
   + 11 R{3,23} + 11 R{4,1} + 11 R{4,2} + 11 R{4,3} + 11 R{4,4} + 11 R{4,5}
   + 11 R{4,6} + 11 R{4,9} + 11 R{4,11} + 11 R{4,12} + 11 R{4,15}
   + 11 R{4,16} + 11 R{4,17} + 9 R{4,19} + 11 R{4,20} + 11 R{4,21}
   + 11 R{4,22} + 11 R{4,24} + 11 R{5,8} + 11 R{5,10} + 11 R{5,13}
   + 11 R{5,21} + 11 R{5,31} <= 11
 R2_20: 13 R{0,7} + 13 R{0,9} + 13 R{0,11} + 13 R{0,13} + 13 R{0,22}
   + 13 R{1,9} + 13 R{2,3} + 13 R{2,4} + 13 R{2,5} + 13 R{2,9} + 13 R{3,7}
   + 13 R{3,12} + 13 R{3,23} + 13 R{5,6} + 13 R{5,9} + 13 R{5,12}
   + 13 R{5,23} + 13 R{5,24} + 13 R{5,27} + 13 R{6,6} + 13 R{6,8}
   + 13 R{6,12} + 13 R{6,14} <= 13
 R2_21: <= 0
 R2_22: 10 R{0,24} + 10 R{0,25} + 10 R{0,26} + 10 R{3,16} + 10 R{3,24}
   + 10 R{5,32} + 10 R{6,30} + 10 R{6,34} <= 10
 R2_23: 12 R{0,10} + 14 R{4,10} + 14 R{4,15} + 14 R{6,3} + 14 R{6,5}
   + 14 R{6,6} + 14 R{6,19} + 14 R{6,22} + 14 R{6,25} + 14 R{6,31}
   + 14 R{6,32} + 14 R{6,33} + 14 R{6,34} <= 14
 R2_24: 10 R{0,27} + 10 R{1,10} + 10 R{1,11} + 10 R{1,15} + 8 R{1,16}
   + 10 R{1,19} + 10 R{2,17} + 10 R{3,1} + 10 R{3,2} + 10 R{3,3}
   + 10 R{3,4} + 10 R{3,5} + 10 R{3,6} + 10 R{3,8} + 10 R{3,10}
   + 10 R{3,11} + 10 R{3,12} + 10 R{3,15} + 10 R{3,18} + 10 R{3,23}
   + 10 R{4,13} + 10 R{4,25} + 8 R{5,16} + 8 R{5,22} + 8 R{5,24} <= 10
 R2_25: 13 R{0,0} + 13 R{0,1} + 13 R{0,2} + 13 R{0,8} + 13 R{0,13}
   + 13 R{0,15} + 13 R{0,16} + 13 R{0,17} + 13 R{0,19} + 13 R{0,22}
   + 13 R{0,24} + 13 R{0,25} + 5 R{0,26} + 13 R{1,13} + 13 R{2,12}
   + 13 R{2,14} + 13 R{2,18} + 13 R{3,10} + 13 R{3,23} + 13 R{4,1}
   + 13 R{4,2} + 13 R{4,3} + 13 R{4,4} + 13 R{4,5} + 13 R{4,6} + 13 R{4,7}
   + 13 R{4,9} + 13 R{4,11} + 13 R{4,12} + 13 R{4,13} + 13 R{4,15}
   + 13 R{4,16} + 13 R{4,17} + 13 R{4,18} + 13 R{4,19} + 13 R{4,20}
   + 13 R{4,21} + 13 R{4,23} + 13 R{4,24} + 13 R{4,26} + 13 R{5,22}
   + 13 R{5,24} + 13 R{5,28} <= 13
 R2_26: 6 R{0,12} + 6 R{0,26} + 6 R{1,11} + 6 R{2,18} + 6 R{3,24}
   + 6 R{4,19} + 6 R{5,1} + 6 R{5,2} + 6 R{5,3} + 6 R{5,4} + 6 R{5,6}
   + 6 R{5,7} + 6 R{5,8} + 6 R{5,9} + 6 R{5,11} + 6 R{5,12} + 6 R{5,13}
   + 6 R{5,14} + 6 R{5,16} + 6 R{5,18} + 6 R{5,19} + 6 R{5,20} + 6 R{5,22}
   + 6 R{5,24} + 6 R{5,25} + 6 R{5,28} + 6 R{5,30} + 6 R{5,32} + 6 R{6,34}
   <= 6
 R2_27: <= 5
 R2_28: <= 0
 R2_29: <= 0
 R2_30: <= 0
 R2_31: 6 R{1,19} + 6 R{2,5} + 6 R{2,17} <= 6
 R2_32: 7 R{0,26} + 7 R{2,15} + 7 R{5,1} + 7 R{5,2} + 7 R{5,3} + 7 R{5,6}
   + 7 R{5,9} + 7 R{5,12} + 7 R{5,14} + 7 R{5,16} + 7 R{5,18} + 7 R{5,19}
   + 7 R{5,20} + 7 R{5,21} + 7 R{5,22} + 7 R{5,23} + 7 R{5,24} + 7 R{5,25}
   + 7 R{5,27} + 7 R{5,28} + 7 R{5,29} + 7 R{5,31} + 7 R{5,32} <= 7
 R2_33: 12 R{1,8} + 12 R{1,10} + 12 R{3,6} + 12 R{3,8} + 12 R{3,10}
   + 12 R{3,20} + 12 R{3,21} + 12 R{4,25} + 12 R{5,30} <= 12
 R2_34: 5 R{0,0} + 5 R{0,1} + 5 R{0,2} + 5 R{0,8} + 5 R{0,10} + 5 R{0,13}
   + 5 R{0,15} + 5 R{0,16} + 5 R{0,17} + 5 R{0,18} + 5 R{0,19} + 5 R{0,21}
   + 5 R{0,22} + 5 R{0,23} + 5 R{0,26} + 5 R{0,27} + 5 R{3,19} + 5 R{5,22}
   <= 5
 R2_35: 13 R{4,23} + 13 R{5,30} <= 13
 R2_36: 15 R{5,1} + 15 R{5,2} + 15 R{5,3} + 15 R{5,4} + 15 R{5,5}
   + 15 R{5,6} + 15 R{5,7} + 15 R{5,8} + 15 R{5,16} + 15 R{5,18}
   + 15 R{5,21} + 15 R{5,22} + 15 R{5,31} + 15 R{5,32} <= 16
 R2_37: 5 R{0,12} + 5 R{0,26} + 5 R{3,1} + 5 R{3,2} + 5 R{3,5} + 5 R{3,6}
   + 5 R{3,8} + 5 R{3,9} + 5 R{3,15} + 5 R{3,20} + 5 R{3,24} + 5 R{5,25}
   <= 5
 R2_38: <= 0
 R2_39: 15 R{0,0} + 15 R{0,1} + 15 R{0,2} + 15 R{0,8} + 15 R{0,13}
   + 15 R{0,15} + 15 R{0,16} + 15 R{0,17} + 15 R{0,19} + 15 R{0,26} <= 17
 R2_40: 15 R{1,18} + 15 R{2,1} + 15 R{2,2} + 15 R{2,3} + 15 R{2,4}
   + 15 R{2,5} + 15 R{2,6} + 15 R{2,7} + 15 R{2,8} + 15 R{2,9} + 15 R{2,11}
   + 15 R{2,13} + 15 R{2,14} + 15 R{2,15} + 15 R{5,21} + 15 R{5,26}
   + 15 R{5,30} <= 15
 R2_41: <= 5
 R2_42: 4 R{0,26} + 4 R{2,1} + 4 R{2,2} + 4 R{2,3} + 4 R{2,4} + 4 R{2,9}
   + 4 R{2,15} + 4 R{5,28} <= 4
 R2_43: <= 0
 R2_44: <= 0
 R2_45: <= 0
 R2_46: 9 R{0,18} + 9 R{0,21} + 9 R{0,23} + 9 R{0,27} + 9 R{4,11}
   + 9 R{4,14} + 9 R{4,16} + 9 R{4,18} + 9 R{4,19} + 9 R{4,20} + 9 R{4,24}
   + 9 R{6,21} + 9 R{6,34} <= 9
 R2_47: 7 R{0,0} + 7 R{0,1} + 7 R{0,2} + 7 R{0,15} + 7 R{0,19} + 7 R{0,21}
   + 7 R{0,23} + 7 R{0,27} + 7 R{5,1} + 7 R{5,2} + 7 R{5,3} + 7 R{5,4}
   + 7 R{5,5} + 7 R{5,7} + 7 R{5,14} + 7 R{5,16} + 7 R{5,18} + 7 R{5,22}
   + 7 R{5,32} <= 7
 R2_48: 4 R{0,27} + 4 R{4,1} + 4 R{4,2} + 4 R{4,3} + 4 R{4,4} + 4 R{4,6}
   + 4 R{4,9} + 4 R{4,11} + 4 R{4,12} + 4 R{4,15} + 4 R{4,16} + 4 R{4,17}
   + 4 R{4,19} + 4 R{4,20} + 4 R{4,22} + 4 R{4,24} + 4 R{4,25} + 4 R{4,26}
   <= 4
 R2_49: <= 0
 R2_50: <= 0
 R2_51: 11 R{0,24} + 11 R{0,25} + 11 R{1,13} + 11 R{4,1} + 11 R{4,20}
   + 11 R{4,25} + 11 R{5,26} + 11 R{6,28} <= 11
 R2_52: 10 R{4,8} + 10 R{4,10} + 10 R{4,14} + 10 R{4,21} + 10 R{4,23}
   + 10 R{4,25} <= 10
 R2_53: 13 R{4,1} + 13 R{4,2} + 13 R{4,3} + 13 R{4,4} + 13 R{4,6}
   + 13 R{4,11} + 13 R{4,15} + 13 R{4,16} + 13 R{4,18} + 13 R{4,20}
   + 13 R{4,24} <= 13
 R2_54: 8 R{2,18} + 9 R{3,1} + 9 R{3,2} + 9 R{3,3} + 9 R{3,4} + 9 R{3,5}
   + 9 R{3,6} + 9 R{3,7} + 9 R{3,8} + 9 R{3,9} + 9 R{3,15} + 9 R{3,20}
   + 9 R{3,23} + 9 R{3,24} + 9 R{4,25} + 9 R{5,22} <= 9
 R2_55: 8 R{6,1} + 8 R{6,2} + 8 R{6,3} + 8 R{6,4} + 8 R{6,5} + 8 R{6,6}
   + 8 R{6,7} + 8 R{6,8} + 8 R{6,9} + 8 R{6,10} + 8 R{6,12} + 8 R{6,13}
   + 8 R{6,14} + 8 R{6,15} + 8 R{6,16} + 8 R{6,17} + 8 R{6,18} + 8 R{6,19}
   + 8 R{6,20} + 8 R{6,21} + 8 R{6,22} + 8 R{6,23} + 8 R{6,24} + 8 R{6,25}
   + 8 R{6,26} + 8 R{6,27} + 8 R{6,29} + 5 R{6,30} + 8 R{6,31} + 8 R{6,32}
   + 8 R{6,33} <= 8
 R2_56: 6 R{0,1} + 6 R{0,2} + 6 R{0,8} + 6 R{0,10} + 6 R{0,13} + 6 R{0,15}
   + 6 R{0,16} + 6 R{0,18} + 6 R{0,19} + 6 R{0,21} + 6 R{0,23} + 6 R{0,25}
   + 6 R{0,27} + 6 R{2,14} + 6 R{3,21} + 6 R{4,5} + 6 R{4,7} + 6 R{4,9}
   + 6 R{4,12} + 6 R{4,13} + 6 R{4,22} + 6 R{4,23} + 6 R{4,25} + 6 R{6,18}
   + 6 R{6,19} + 6 R{6,21} + 6 R{6,24} + 6 R{6,31} <= 6
 R2_57: <= 0
 R2_58: <= 0
 R2_59: 10 R{4,8} + 10 R{4,10} + 10 R{4,14} + 10 R{4,19} + 10 R{4,20}
   + 10 R{4,23} + 10 R{4,24} + 10 R{4,26} + 10 R{5,30} + 7 R{6,17}
   + 10 R{6,27} + 10 R{6,29} <= 10
 R2_60: <= 0
 R2_61: 9 R{0,24} + 9 R{0,25} + 9 R{3,16} + 9 R{4,8} + 9 R{4,10}
   + 9 R{4,14} + 9 R{4,19} + 9 R{4,25} + 9 R{5,32} + 9 R{6,9} + 9 R{6,25}
   + 9 R{6,27} + 9 R{6,30} + 9 R{6,34} <= 9
 R2_62: <= 0
 R2_63: <= 0
 R2_64: <= 0
 R2_65: <= 5
 R2_66: 7 R{1,10} + 7 R{1,11} + 7 R{5,19} + 7 R{5,32} + 7 R{6,1} + 7 R{6,2}
   + 7 R{6,3} + 7 R{6,4} + 7 R{6,5} + 7 R{6,6} + 7 R{6,9} + 7 R{6,10}
   + 7 R{6,16} + 7 R{6,18} + 7 R{6,19} + 7 R{6,20} + 7 R{6,22} + 7 R{6,24}
   + 7 R{6,25} + 7 R{6,31} + 7 R{6,33} + 7 R{6,34} <= 7
 R2_67: 3 R{0,10} + 3 R{0,18} + 3 R{0,19} + 3 R{4,25} + 3 R{6,5}
   + 3 R{6,22} + 3 R{6,32} + 3 R{6,33} <= 3
 R2_68: 6 R{0,20} + 6 R{1,1} + 6 R{1,2} + 6 R{1,3} + 6 R{1,4} + 6 R{1,5}
   + 6 R{1,8} + 6 R{2,11} + 6 R{2,12} + 6 R{2,13} + 6 R{2,14} + 6 R{2,18}
   + 6 R{4,25} <= 6
 R2_69: 7 R{0,0} + 7 R{0,1} + 7 R{0,2} + 7 R{0,8} + 7 R{0,10} + 7 R{0,13}
   + 7 R{0,15} + 7 R{0,16} + 7 R{0,17} + 7 R{0,18} + 7 R{0,19} + 7 R{0,21}
   + 7 R{0,26} + 7 R{1,15} + 7 R{3,13} + 7 R{3,22} + 7 R{4,1} + 7 R{4,2}
   + 7 R{4,3} + 7 R{4,4} + 7 R{4,5} + 7 R{4,6} + 7 R{4,9} + 7 R{4,11}
   + 7 R{4,12} + 7 R{4,15} + 7 R{4,16} + 7 R{4,17} + 7 R{4,18} + 7 R{4,19}
   + 7 R{4,20} + 7 R{4,22} + 7 R{4,24} + 7 R{4,26} + 7 R{5,21} + 7 R{5,23}
   + 7 R{5,27} + 7 R{6,27} <= 7
 R2_70: 11 R{1,1} + 11 R{1,2} + 11 R{1,5} <= 11
 R2_71: 7 R{0,22} + 7 R{5,18} + 7 R{5,32} + 7 R{6,1} + 7 R{6,2} + 7 R{6,3}
   + 7 R{6,4} + 7 R{6,5} + 7 R{6,6} + 7 R{6,7} + 7 R{6,8} + 7 R{6,9}
   + 7 R{6,10} + 7 R{6,11} + 7 R{6,12} + 7 R{6,13} + 7 R{6,15} + 7 R{6,16}
   + 7 R{6,18} + 7 R{6,19} + 7 R{6,20} + 7 R{6,21} + 7 R{6,22} + 7 R{6,23}
   + 7 R{6,25} + 7 R{6,26} + 7 R{6,29} + 7 R{6,31} + 7 R{6,32} + 7 R{6,34}
   <= 7
 R2_72: <= 0
 R2_73: 11 R{0,0} + 11 R{0,1} + 11 R{0,2} + 11 R{0,8} + 11 R{0,13}
   + 11 R{0,15} + 11 R{0,16} + 11 R{0,17} + 11 R{0,21} + 11 R{0,22}
   + 11 R{0,23} + 11 R{0,26} + 11 R{0,27} <= 11
 R2_74: 5 R{5,1} + 5 R{5,2} + 5 R{5,3} + 5 R{5,4} + 5 R{5,14} + 5 R{5,18}
   <= 5
 R2_75: 8 R{6,1} + 8 R{6,2} + 8 R{6,3} + 8 R{6,4} + 8 R{6,5} + 8 R{6,6}
   + 7 R{6,7} + 7 R{6,8} + 8 R{6,9} + 8 R{6,11} + 7 R{6,12} + 7 R{6,14}
   + 8 R{6,16} + 8 R{6,20} + 8 R{6,22} + 8 R{6,23} + 8 R{6,25} + 8 R{6,26}
   + 7 R{6,27} + 8 R{6,28} + 8 R{6,31} + 8 R{6,32} + 8 R{6,33} + 8 R{6,34}
   <= 8
 R2_76: 12 R{0,4} + 12 R{0,5} + 12 R{0,6} + 12 R{0,7} + 12 R{0,9}
   + 12 R{0,10} + 12 R{0,11} + 12 R{0,12} + 12 R{0,14} + 12 R{0,24}
   + 12 R{0,26} + 12 R{3,15} + 12 R{5,9} + 12 R{5,10} + 12 R{5,11}
   + 12 R{5,12} + 12 R{5,13} + 12 R{5,14} + 12 R{5,19} + 12 R{5,20}
   + 12 R{5,23} + 12 R{5,24} + 12 R{5,25} + 12 R{5,27} + 12 R{5,28}
   + 12 R{5,29} + 12 R{5,30} + 12 R{6,12} + 12 R{6,20} + 12 R{6,34} <= 12
 R2_77: 7 R{0,1} + 7 R{0,2} + 7 R{0,5} + 7 R{0,6} + 7 R{0,8} + 7 R{0,10}
   + 7 R{0,11} + 7 R{0,14} + 7 R{0,15} + 7 R{0,17} + 7 R{0,18} + 7 R{0,20}
   + 7 R{0,23} + 7 R{0,26} + 7 R{1,2} + 7 R{1,4} + 7 R{1,6} + 7 R{1,7}
   + 7 R{1,8} + 7 R{1,9} + 7 R{1,12} + 7 R{1,14} + 7 R{1,16} + 7 R{1,17}
   + 7 R{1,18} + 7 R{2,2} + 7 R{2,3} + 7 R{2,4} + 7 R{2,6} + 7 R{2,8}
   + 7 R{2,9} + 7 R{2,10} + 7 R{2,11} + 7 R{2,13} + 7 R{2,15} + 7 R{2,16}
   + 7 R{2,18} + 7 R{3,2} + 7 R{3,5} + 7 R{3,9} + 7 R{3,11} + 7 R{3,12}
   + 7 R{3,13} + 7 R{3,14} + 7 R{3,15} + 7 R{3,17} + 7 R{3,20} + 7 R{3,22}
   + 7 R{3,24} + 7 R{4,2} + 7 R{4,6} + 7 R{4,12} + 7 R{4,16} + 7 R{4,17}
   + 7 R{4,18} + 7 R{4,23} + 7 R{4,24} + 7 R{4,26} + 7 R{5,2} + 7 R{5,3}
   + 7 R{5,5} + 7 R{5,7} + 7 R{5,11} + 7 R{5,14} + 7 R{5,15} + 7 R{5,16}
   + 7 R{5,17} + 7 R{5,18} + 7 R{5,20} + 7 R{5,22} + 7 R{5,24} + 7 R{5,30}
   + 7 R{5,32} + 7 R{6,2} + 7 R{6,3} + 7 R{6,5} + 7 R{6,7} + 7 R{6,9}
   + 7 R{6,11} + 7 R{6,13} + 7 R{6,15} + 7 R{6,17} + 7 R{6,19} + 7 R{6,21}
   + 7 R{6,23} + 7 R{6,26} + 7 R{6,29} + 7 R{6,32} + 7 R{6,34} <= 7
Bounds
End
